words_hard_train/7204.qaiger
aag 98 24 0 1 74
2
4
12
20
22
26
30
36
38
46
56
62
64
82
84
100
102
110
122
124
134
136
158
166
196
6 3 4
8 2 5
10 7 9
14 10 13
16 11 12
18 15 17
24 21 23
28 24 27
32 28 31
34 19 33
40 37 38
42 36 39
44 41 43
48 44 47
50 45 46
52 49 51
54 32 13
58 54 57
60 52 58
66 62 65
68 63 64
70 67 69
72 29 30
74 73 18
76 71 75
78 61 77
80 35 78
86 82 84
88 83 85
90 87 89
92 55 56
94 93 59
96 90 95
98 80 97
104 101 102
106 100 103
108 105 107
112 109 111
114 108 110
116 113 115
118 70 74
120 117 119
126 122 125
128 123 124
130 127 129
132 130 23
138 135 136
140 134 137
142 139 141
144 142 21
146 143 20
148 145 147
150 133 149
152 131 22
154 153 148
156 151 155
160 159 27
162 158 26
164 161 163
168 25 166
170 24 167
172 169 171
174 164 173
176 165 172
178 175 177
180 18 32
182 178 181
184 156 182
186 120 184
188 91 94
190 53 59
192 189 191
194 186 192
196 98 194
i0 2 y1[5]
i1 1 x2[5]
i2 1 x1[2]
i3 1 x1[5]
i4 1 x1[6]
i5 1 x1[4]
i6 1 x1[3]
i7 2 y1[7]
i8 1 x2[7]
i9 1 x1[0]
i10 1 x1[1]
i11 2 y1[4]
i12 1 x2[4]
i13 2 y1[6]
i14 1 x2[6]
i15 2 y1[0]
i16 1 x2[0]
i17 1 x1[7]
i18 2 y1[1]
i19 1 x2[1]
i20 2 y1[2]
i21 1 x2[2]
i22 1 x2[3]
i23 2 y1[3]
o0 bool[0]
c
simplified
  ==
    xor
      subtract
        1
        reverse
          1 x1
      1 x2
    2 y1
