words_hard_train/7204.qaiger.qdimacs
p cnf 98 223
a 32 2 68 6 10 11 42 13 15 79 19 51 55 23 28 62 0
e 1 3 4 5 7 8 9 12 14 16 17 18 20 21 22 24 25 26 27 29 30 31 33 34 35 36 37 38 39 40 41 43 44 45 46 47 48 49 50 52 53 54 56 57 58 59 60 61 63 64 65 66 67 69 70 71 72 73 74 75 76 77 78 80 81 82 83 84 85 86 87 88 89 90 91 92 93 94 95 96 97 98 0
1 -2 3 0
-1 -3 0
2 -3 0
-1 2 4 0
1 -4 0
-2 -4 0
3 4 5 0
-3 -5 0
-4 -5 0
-5 6 7 0
5 -7 0
-6 -7 0
5 -6 8 0
-5 -8 0
6 -8 0
7 8 9 0
-7 -9 0
-8 -9 0
10 11 12 0
-10 -12 0
-11 -12 0
-12 13 14 0
12 -14 0
-13 -14 0
-14 15 16 0
14 -16 0
-15 -16 0
9 16 17 0
-9 -17 0
-16 -17 0
18 -19 20 0
-18 -20 0
19 -20 0
-18 19 21 0
18 -21 0
-19 -21 0
20 21 22 0
-20 -22 0
-21 -22 0
-22 23 24 0
22 -24 0
-23 -24 0
22 -23 25 0
-22 -25 0
23 -25 0
24 25 26 0
-24 -26 0
-25 -26 0
-16 6 27 0
16 -27 0
-6 -27 0
-27 28 29 0
27 -29 0
-28 -29 0
-26 -29 30 0
26 -30 0
29 -30 0
-31 32 33 0
31 -33 0
-32 -33 0
31 -32 34 0
-31 -34 0
32 -34 0
33 34 35 0
-33 -35 0
-34 -35 0
14 -15 36 0
-14 -36 0
15 -36 0
36 -9 37 0
-36 -37 0
9 -37 0
35 37 38 0
-35 -38 0
-37 -38 0
30 38 39 0
-30 -39 0
-38 -39 0
17 -39 40 0
-17 -40 0
39 -40 0
-41 -42 43 0
41 -43 0
42 -43 0
41 42 44 0
-41 -44 0
-42 -44 0
43 44 45 0
-43 -45 0
-44 -45 0
27 -28 46 0
-27 -46 0
28 -46 0
46 29 47 0
-46 -47 0
-29 -47 0
-45 47 48 0
45 -48 0
-47 -48 0
-40 48 49 0
40 -49 0
-48 -49 0
50 -51 52 0
-50 -52 0
51 -52 0
-50 51 53 0
50 -53 0
-51 -53 0
52 53 54 0
-52 -54 0
-53 -54 0
54 55 56 0
-54 -56 0
-55 -56 0
-54 -55 57 0
54 -57 0
55 -57 0
56 57 58 0
-56 -58 0
-57 -58 0
-35 -37 59 0
35 -59 0
37 -59 0
58 59 60 0
-58 -60 0
-59 -60 0
-61 62 63 0
61 -63 0
-62 -63 0
61 -62 64 0
-61 -64 0
62 -64 0
63 64 65 0
-63 -65 0
-64 -65 0
-65 11 66 0
65 -66 0
-11 -66 0
67 -68 69 0
-67 -69 0
68 -69 0
-67 68 70 0
67 -70 0
-68 -70 0
69 70 71 0
-69 -71 0
-70 -71 0
-71 10 72 0
71 -72 0
-10 -72 0
71 -10 73 0
-71 -73 0
10 -73 0
72 73 74 0
-72 -74 0
-73 -74 0
66 74 75 0
-66 -75 0
-74 -75 0
65 -11 76 0
-65 -76 0
11 -76 0
76 -74 77 0
-76 -77 0
74 -77 0
75 77 78 0
-75 -78 0
-77 -78 0
79 13 80 0
-79 -80 0
-13 -80 0
-79 -13 81 0
79 -81 0
13 -81 0
80 81 82 0
-80 -82 0
-81 -82 0
12 -83 84 0
-12 -84 0
83 -84 0
-12 83 85 0
12 -85 0
-83 -85 0
84 85 86 0
-84 -86 0
-85 -86 0
-82 86 87 0
82 -87 0
-86 -87 0
82 -86 88 0
-82 -88 0
86 -88 0
87 88 89 0
-87 -89 0
-88 -89 0
-9 -16 90 0
9 -90 0
16 -90 0
-89 90 91 0
89 -91 0
-90 -91 0
-78 -91 92 0
78 -92 0
91 -92 0
-60 -92 93 0
60 -93 0
92 -93 0
45 -47 94 0
-45 -94 0
47 -94 0
26 29 95 0
-26 -95 0
-29 -95 0
94 95 96 0
-94 -96 0
-95 -96 0
-93 -96 97 0
93 -97 0
96 -97 0
-49 -97 98 0
49 -98 0
97 -98 0
98 0
